
Gurobi 9.5.0 (win64) logging started Mon Jul  4 11:42:05 2022

Set parameter LogFile to value "../results/logs/log_com-dblp.ungraph_3_250_2022_07_04_11_15.log"
Gurobi Optimizer version 9.5.0 build v9.5.0rc5 (win64)
Thread count: 6 physical cores, 12 logical processors, using up to 12 threads
Optimize a model with 33374 rows, 634160 columns and 261250 nonzeros
Model fingerprint: 0xb24f2f60
Coefficient statistics:
  Matrix range     [1e+00, 3e+00]
  Objective range  [1e+00, 1e+00]
  Bounds range     [1e+00, 1e+00]
  RHS range        [1e+00, 3e+02]

Concurrent LP optimizer: primal simplex, dual simplex, and barrier
Showing barrier log only...

Presolve removed 6468 rows and 606118 columns
Presolve time: 0.55s
Presolved: 26906 rows, 28042 columns, 88348 nonzeros

Ordering time: 0.00s

Barrier statistics:
 AA' NZ     : 2.383e+04
 Factor NZ  : 4.133e+04 (roughly 5 MB of memory)
 Factor Ops : 3.810e+05 (less than 1 second per iteration)
 Threads    : 1

                  Objective                Residual
Iter       Primal          Dual         Primal    Dual     Compl     Time
   0   2.70945502e+05  3.30446801e+06  1.27e+03 6.29e+01  8.17e+03     1s
   1   2.37249007e+05  7.04819602e+06  6.45e+02 1.82e-12  3.78e+03     1s
   2   2.10580234e+05  5.43268480e+06  8.51e+01 3.64e-12  6.64e+02     1s
   3   2.07356760e+05  1.97311686e+06  2.66e+01 7.67e-12  1.80e+02     1s
   4   2.06122790e+05  6.92819875e+05  4.62e+00 7.50e-12  3.86e+01     1s
   5   2.05922139e+05  3.09593696e+05  1.00e-01 7.28e-12  5.87e+00     1s
   6   2.06078695e+05  2.34020980e+05  1.57e-02 2.56e-12  1.56e+00     1s
   7   2.06201965e+05  2.10935612e+05  3.97e-03 9.28e-13  2.64e-01     1s
   8   2.06419835e+05  2.07793847e+05  7.94e-04 4.55e-13  7.66e-02     1s
   9   2.06604144e+05  2.07437050e+05  1.82e-04 3.41e-13  4.64e-02     1s
  10   2.06635034e+05  2.07411868e+05  1.64e-04 2.84e-13  4.33e-02     1s
  11   2.06640007e+05  2.07269333e+05  1.60e-04 2.27e-13  3.51e-02     1s
  12   2.06684430e+05  2.07214079e+05  1.29e-04 1.75e-13  2.95e-02     1s
  13   2.06695984e+05  2.07166088e+05  1.23e-04 1.71e-13  2.62e-02     1s
  14   2.06749519e+05  2.07075241e+05  8.80e-05 8.53e-14  1.81e-02     1s
  15   2.06792054e+05  2.07032170e+05  6.37e-05 1.19e-13  1.34e-02     1s
  16   2.06864395e+05  2.06983599e+05  2.52e-05 5.34e-14  6.64e-03     1s
  17   2.06920024e+05  2.06946790e+05  5.60e-06 5.77e-14  1.49e-03     1s
  18   2.06937043e+05  2.06938198e+05  9.25e-08 1.86e-13  6.44e-05     1s
  19   2.06937417e+05  2.06937418e+05  6.45e-11 2.70e-13  6.61e-08     1s
  20   2.06937417e+05  2.06937417e+05  2.20e-14 1.08e-13  1.50e-13     1s

Barrier solved model in 20 iterations and 0.68 seconds (0.29 work units)
Optimal objective 2.06937417e+05

Crossover log...

    1848 DPushes remaining with DInf 0.0000000e+00                 1s
       0 DPushes remaining with DInf 0.0000000e+00                 1s

     155 PPushes remaining with PInf 0.0000000e+00                 1s
       0 PPushes remaining with PInf 0.0000000e+00                 1s

  Push phase complete: Pinf 0.0000000e+00, Dinf 7.4218409e-14      1s

Iteration    Objective       Primal Inf.    Dual Inf.      Time
    1306    2.0693742e+05   0.000000e+00   0.000000e+00      1s

Use crossover to convert LP symmetric solution to basic solution...
Crossover log...

       0 DPushes remaining with DInf 0.0000000e+00                 1s

     300 PPushes remaining with PInf 0.0000000e+00                 1s
       0 PPushes remaining with PInf 0.0000000e+00                 1s

  Push phase complete: Pinf 0.0000000e+00, Dinf 4.2132964e-14      1s

Iteration    Objective       Primal Inf.    Dual Inf.      Time
    3337    2.0693742e+05   0.000000e+00   0.000000e+00      1s

Solved with primal simplex
Solved in 4939 iterations and 0.92 seconds (0.32 work units)
Optimal objective  2.069374175e+05
